RT is False
Default write of storage_offers_DA.csv just to have a file (but constraint should be inactive)
Reading model...
...model read.
creating competitive generators file...
...competitive generators recorded.
Loading data...
.. day-ahead data read.
Compiling instance...
...instance created.
Creating Offer Mitigation (model will solve as dispatch if TRUE)...
NOTE: storage offers will not be mitigated
...storage offer mitigation file created
Converting model to MPEC...
...converted
NOTE: initial MIP solve with only storage competitive to get feasible solution
Solving...

Welcome to IBM(R) ILOG(R) CPLEX(R) Interactive Optimizer 12.9.0.0
  with Simplex, Mixed Integer & Barrier Optimizers
5725-A06 5725-A29 5724-Y48 5724-Y49 5724-Y54 5724-Y55 5655-Y21
Copyright IBM Corp. 1988, 2019.  All Rights Reserved.

Type 'help' for a list of available commands.
Type 'help' followed by a command name for more
information on commands.

CPLEX> Logfile 'cplex.log' closed.
Logfile 'C:\Users\Luke\Desktop\test919\logs\tmpowosf_sl.cplex.log' open.
CPLEX> New value for parallel optimization mode: -1
CPLEX> New value for mixed integer optimality gap tolerance: 0.01
CPLEX> New value for integrality tolerance: 1e-09
CPLEX> New value for feasibility tolerance: 0.01
CPLEX> New value for deterministic time limit in ticks: 75000
CPLEX> Problem 'C:\Users\Luke\Desktop\test919\logs\tmp9sh8mcyr.pyomo.lp' read.
Read time = 0.20 sec. (14.73 ticks)
CPLEX> Problem name         : C:\Users\Luke\Desktop\test919\logs\tmp9sh8mcyr.pyomo.lp
Objective sense      : Maximize
Variables            :   53805  [Nneg: 1,  Box: 22000,  Free: 4464,
                                 Binary: 27340]
Objective nonzeros   :    9077
Linear constraints   :  123205  [Less: 41346,  Greater: 59096,  Equal: 22763]
  Nonzeros           :  291898
  RHS nonzeros       :   67588

Variables            : Min LB: -5000.000        Max UB: 1000000.       
Objective nonzeros   : Min   : 0.1000000        Max   : 722.0000       
Linear constraints   :
  Nonzeros           : Min   : 0.1000000        Max   : 1000000.       
  RHS nonzeros       : Min   : 0.1000000        Max   : 1000000.       
CPLEX> CPXPARAM_Parallel                                -1
CPXPARAM_Simplex_Tolerances_Feasibility          0.01
CPXPARAM_DetTimeLimit                            75000
CPXPARAM_MIP_Tolerances_MIPGap                   0.01
CPXPARAM_MIP_Tolerances_Integrality              1.0000000000000001e-09
Tried aggregator 3 times.
MIP Presolve eliminated 88118 rows and 18496 columns.
MIP Presolve added 3508 rows and 0 columns.
MIP Presolve modified 25024 coefficients.
Aggregator did 13036 substitutions.
Reduced MIP has 25559 rows, 21795 columns, and 72720 nonzeros.
Reduced MIP has 8620 binaries, 0 generals, 0 SOSs, and 0 indicators.
Presolve time = 0.25 sec. (176.87 ticks)
Probing fixed 417 vars, tightened 2922 bounds.
Probing time = 1.50 sec. (929.66 ticks)
Tried aggregator 2 times.
MIP Presolve eliminated 939 rows and 834 columns.
MIP Presolve modified 2289 coefficients.
Aggregator did 41 substitutions.
Reduced MIP has 24579 rows, 20920 columns, and 69885 nonzeros.
Reduced MIP has 8203 binaries, 0 generals, 0 SOSs, and 0 indicators.
Presolve time = 0.09 sec. (71.23 ticks)
Probing time = 0.03 sec. (16.85 ticks)
Clique table members: 6446.
MIP emphasis: balance optimality and feasibility.
MIP search method: dynamic search.
Parallel mode: opportunistic, using up to 24 threads.
Root relaxation solution time = 0.45 sec. (333.21 ticks)

        Nodes                                         Cuts/
   Node  Left     Objective  IInf  Best Integer    Best Bound    ItCnt     Gap

      0     0     4473.0295  2077                   4473.0295     7499         
      0     0     4473.0295    59                    Cuts: 38     7517         
      0     0     4473.0295    58                Flowcuts: 31     7528         
      0     0     4473.0295    44                Flowcuts: 12     7530         
      0     0     4473.0295    42                Flowcuts: 12     7532         
      0     4    infeasible                       Impl Bds: 1     7598         
Elapsed time = 8.61 sec. (5680.54 ticks, tree = 0.02 MB, solutions = 0)
*   332    43      integral     0   -21505.2085     4438.2666    10335  120.64%
    604   326     3979.8718     2   -21505.2085     4438.2666    14547  120.64%
   1015   381     4437.5402     1   -21505.2085     4438.2666    14769  120.64%
*  1393   711      integral     0   -14482.3475     4438.2666    16331  130.65%
   1853   885     4438.0985     3   -14482.3475     4438.2666    17686  130.65%
   2149   995     4368.9165     5   -14482.3475     4438.2666    18641  130.65%
   2362  1051     4438.0985     5   -14482.3475     4438.2666    18921  130.65%
   2644  1129     4427.2954     2   -14482.3475     4438.2666    19504  130.65%
   2980  1172     4437.5402     8   -14482.3475     4438.2666    20012  130.65%
   3781  1978        cutoff         -14482.3475     4438.2666    24229  130.65%
Elapsed time = 15.67 sec. (8741.29 ticks, tree = 12.09 MB, solutions = 2)
   4663  2456     4228.9533     1   -14482.3475     4438.2666    28003  130.65%
   5629  2909        cutoff         -14482.3475     4438.2666    30751  130.65%
   6144  3185        cutoff         -14482.3475     4438.2666    32459  130.65%
   6829  3422       51.6040     1   -14482.3475     4438.2666    33548  130.65%
   7615  3950     1248.5129     1   -14482.3475     4438.2666    36806  130.65%
   7709  4677     4438.0254     2   -14482.3475     4438.2666    47033  130.65%
*  8434   516      integral     0     4175.0115     4438.2666    49123    6.31%
   9044   614     4437.5576     7     4175.0115     4438.2666    51195    6.31%
  10354   950     4358.9444     3     4175.0115     4438.2666    52729    6.31%
  11845  1988     4438.2666     4     4175.0115     4438.2666    58631    6.31%
Elapsed time = 41.03 sec. (21591.67 ticks, tree = 12.39 MB, solutions = 3)
  13327  2408     4211.1459     3     4175.0115     4438.2666    61117    6.31%
* 13847  2874      integral     0     4357.0539     4438.2666    63746    1.86%
* 14021  2940      integral     0     4392.1788     4438.2666    64175    1.05%
  14089  2672     4357.0539     1     4392.1788     4438.2666    62498    1.05%
  14446  2211     4438.0985     4     4392.1788     4438.2666    67793    1.05%
  15223  2454     4416.2158     1     4392.1788     4438.2666    69494    1.05%
  15890  2253        cutoff           4392.1788     4438.2666    68225    1.05%
  16377  2559     4438.0985     2     4392.1788     4438.2666    70011    1.05%
  16854  2776     4437.0954     3     4392.1788     4438.2666    71462    1.05%
  17225  2558     4438.0985     1     4392.1788     4438.2666    69974    1.05%
  17554  2618     4433.1434     4     4392.1788     4438.2666    70461    1.05%
  17871  2847     4438.0985     3     4392.1788     4438.2666    71739    1.05%
Elapsed time = 57.50 sec. (31157.10 ticks, tree = 18.90 MB, solutions = 5)
  18128  3094     4438.0985     1     4392.1788     4438.2666    73324    1.05%
  18346  3106        cutoff           4392.1788     4438.2666    73584    1.05%
  18561  3113        cutoff           4392.1788     4438.2666    73816    1.05%
  18766  3106        cutoff           4392.1788     4438.2666    73715    1.05%
  18957  3108     4438.0985     1     4392.1788     4438.2666    73594    1.05%
  19143  3107        cutoff           4392.1788     4438.2666    73651    1.05%
  19317  3110     4437.5402     1     4392.1788     4438.2666    73901    1.05%
  19479  3147     4437.0954     2     4392.1788     4438.2666    74140    1.05%
  19638  3144        cutoff           4392.1788     4438.2666    74181    1.05%
  19826  3155     4407.7992     3     4392.1788     4438.2666    74430    1.05%
Elapsed time = 67.66 sec. (40727.98 ticks, tree = 21.07 MB, solutions = 5)
  19987  3206        cutoff           4392.1788     4438.2666    74961    1.05%
  20118  3188     4438.0985     1     4392.1788     4438.2666    74738    1.05%
  20290  3198     4437.0954     2     4392.1788     4438.2666    74873    1.05%
  20480  3220        cutoff           4392.1788     4438.2666    75064    1.05%
  20656  3217        cutoff           4392.1788     4438.2666    75128    1.05%
  20858  3246     4412.4290     2     4392.1788     4438.2666    75360    1.05%
  21040  3232     4436.1797     1     4392.1788     4438.2666    75196    1.05%
  21208  3283     4438.0985     2     4392.1788     4438.2666    75588    1.05%
  21436  3265        cutoff           4392.1788     4438.2666    75513    1.05%
  21635  3283     4438.0985     2     4392.1788     4438.2666    75600    1.05%
Elapsed time = 78.03 sec. (50341.35 ticks, tree = 21.99 MB, solutions = 5)
  21803  3298     4438.0985     2     4392.1788     4438.2666    75826    1.05%
  21966  3342     4412.1346     1     4392.1788     4438.2666    76164    1.05%
  22124  3315        cutoff           4392.1788     4438.2666    75957    1.05%
  22280  3326     4438.0985     1     4392.1788     4438.2666    76034    1.05%
  22429  3342     4412.1346     1     4392.1788     4438.2666    76176    1.05%
  22579  3334        cutoff           4392.1788     4438.2666    76110    1.05%
  22729  3430     4437.0954     1     4392.1788     4438.2666    76882    1.05%
  22865  3421     4437.5402     1     4392.1788     4438.2666    76780    1.05%
  22978  3406        cutoff           4392.1788     4438.2666    76698    1.05%
  23128  3425     4438.0985     1     4392.1788     4438.2666    76787    1.05%
Elapsed time = 89.02 sec. (59959.81 ticks, tree = 23.03 MB, solutions = 5)
  23268  3451        cutoff           4392.1788     4438.2666    77387    1.05%
  23390  3444        cutoff           4392.1788     4438.2666    77156    1.05%
  23522  3441        cutoff           4392.1788     4438.2666    77088    1.05%
  23626  3440     4406.7745     1     4392.1788     4438.2666    77101    1.05%
  23777  3472     4429.7738     1     4392.1788     4438.2666    77542    1.05%
  23921  3453        cutoff           4392.1788     4438.2666    77341    1.05%
  24056  3485     4437.5402     3     4392.1788     4438.2666    77755    1.05%
  24233  3631        cutoff           4392.1788     4438.2666    79047    1.05%
  24411  3504        cutoff           4392.1788     4438.2666    77911    1.05%
  24572  3507     4437.5402     3     4392.1788     4438.2666    77928    1.05%
Elapsed time = 98.52 sec. (69554.82 ticks, tree = 23.55 MB, solutions = 5)
  24709  3601     4429.0775     1     4392.1788     4438.2666    78742    1.05%
  24832  3579        cutoff           4392.1788     4438.2666    78565    1.05%
  24930  3562        cutoff           4392.1788     4438.2666    78410    1.05%
  25010  3631        cutoff           4392.1788     4438.2666    79074    1.05%
  25071  3629     4437.5402     1     4392.1788     4438.2666    78993    1.05%
  25112  3625     4406.7745     1     4392.1788     4438.2666    79021    1.05%

Clique cuts applied:  7
Cover cuts applied:  8
Implied bound cuts applied:  16
Flow cuts applied:  29
Mixed integer rounding cuts applied:  15
Gomory fractional cuts applied:  18

Root node processing (before b&c):
  Real time             =    8.22 sec. (5668.94 ticks)
Parallel b&c, 24 threads:
  Real time             =   93.38 sec. (70109.41 ticks)
  Sync time (average)   =    0.66 sec.
  Wait time (average)   =    0.09 sec.
                          ------------
Total (root+branch&cut) =  101.59 sec. (75778.35 ticks)

Solution pool: 5 solutions saved.

MIP - Deterministic time limit exceeded, integer feasible:  Objective =  4.3921787515e+03
Current MIP best bound =  4.4382665947e+03 (gap = 46.0878, 1.05%)
Solution time =  101.59 sec.  Iterations = 80184  Nodes = 25116 (3752)
Deterministic time = 75778.50 ticks  (745.90 ticks/sec)

CPLEX> Incumbent solution written to file 'C:\Users\Luke\Desktop\test919\logs\tmpq75ar7bt.cplex.sol'.
CPLEX> NOTE: no warmstart specified for MIP iteration, default behavior is true
NOTE: resolving with all competitive generators using storage-only solution to warmstart
Solving...

Welcome to IBM(R) ILOG(R) CPLEX(R) Interactive Optimizer 12.9.0.0
  with Simplex, Mixed Integer & Barrier Optimizers
5725-A06 5725-A29 5724-Y48 5724-Y49 5724-Y54 5724-Y55 5655-Y21
Copyright IBM Corp. 1988, 2019.  All Rights Reserved.

Type 'help' for a list of available commands.
Type 'help' followed by a command name for more
information on commands.

CPLEX> Logfile 'cplex.log' closed.
Logfile 'C:\Users\Luke\Desktop\test919\logs\tmpaktjzjcd.cplex.log' open.
CPLEX> New value for parallel optimization mode: -1
CPLEX> New value for mixed integer optimality gap tolerance: 0.01
CPLEX> New value for integrality tolerance: 1e-09
CPLEX> New value for feasibility tolerance: 0.01
CPLEX> New value for deterministic time limit in ticks: 75000
CPLEX> Problem 'C:\Users\Luke\Desktop\test919\logs\tmpb4ftm3px.pyomo.lp' read.
Read time = 0.20 sec. (14.75 ticks)
CPLEX> MIP start file 'C:\Users\Luke\Desktop\test919\logs\tmpzptb9qod.cplex.mst' read.
CPLEX> Problem name         : C:\Users\Luke\Desktop\test919\logs\tmpb4ftm3px.pyomo.lp
Objective sense      : Maximize
Variables            :   54525  [Nneg: 1,  Box: 22720,  Free: 4464,
                                 Binary: 27340]
Objective nonzeros   :    9797
Linear constraints   :  123205  [Less: 41346,  Greater: 59096,  Equal: 22763]
  Nonzeros           :  291898
  RHS nonzeros       :   67588

Variables            : Min LB: -5000.000        Max UB: 1000000.       
Objective nonzeros   : Min   : 0.1000000        Max   : 722.0000       
Linear constraints   :
  Nonzeros           : Min   : 0.1000000        Max   : 1000000.       
  RHS nonzeros       : Min   : 0.1000000        Max   : 1000000.       
CPLEX> CPXPARAM_Parallel                                -1
CPXPARAM_Simplex_Tolerances_Feasibility          0.01
CPXPARAM_DetTimeLimit                            75000
CPXPARAM_MIP_Tolerances_MIPGap                   0.01
CPXPARAM_MIP_Tolerances_Integrality              1.0000000000000001e-09
Warning:  No solution found from 1 MIP starts.
Retaining values of one MIP start for possible repair.
Tried aggregator 3 times.
MIP Presolve eliminated 88118 rows and 19216 columns.
MIP Presolve added 3508 rows and 0 columns.
MIP Presolve modified 25024 coefficients.
Aggregator did 13036 substitutions.
Reduced MIP has 25559 rows, 21795 columns, and 72720 nonzeros.
Reduced MIP has 8620 binaries, 0 generals, 0 SOSs, and 0 indicators.
Presolve time = 0.23 sec. (177.24 ticks)
Probing fixed 417 vars, tightened 2922 bounds.
Probing time = 1.59 sec. (929.66 ticks)
Tried aggregator 2 times.
MIP Presolve eliminated 939 rows and 834 columns.
MIP Presolve modified 2289 coefficients.
Aggregator did 41 substitutions.
Reduced MIP has 24579 rows, 20920 columns, and 69885 nonzeros.
Reduced MIP has 8203 binaries, 0 generals, 0 SOSs, and 0 indicators.
Presolve time = 0.11 sec. (71.23 ticks)
Probing time = 0.03 sec. (16.85 ticks)
Clique table members: 6446.
MIP emphasis: balance optimality and feasibility.
MIP search method: dynamic search.
Parallel mode: opportunistic, using up to 24 threads.
Root relaxation solution time = 0.47 sec. (333.21 ticks)

        Nodes                                         Cuts/
   Node  Left     Objective  IInf  Best Integer    Best Bound    ItCnt     Gap

      0     0     4473.0295  2077                   4473.0295     7499         
      0     0     4473.0295    59                    Cuts: 38     7517         
      0     0     4473.0295    58                Flowcuts: 31     7528         
      0     0     4473.0295    44                Flowcuts: 12     7530         
      0     0     4473.0295    42                Flowcuts: 12     7532         
Repair heuristic found nothing.
      0     8    infeasible                       Impl Bds: 1     7929         
Elapsed time = 8.94 sec. (5788.56 ticks, tree = 0.02 MB, solutions = 0)
    375   124     4214.9510    11                   4438.2666    10843         
    691   328   -33224.5105     2                   4438.2666    13480         
   1113   487     3546.0751     9                   4438.2666    20817         
*  1286+  420                         3163.7185     4438.2666            40.29%
   1579   483     4436.6600     3     3216.2936     4438.2666    27752   37.99%
   1848   429     4222.4651     1     3216.2936     4438.2666    31482   37.99%
   2138   666     4431.9757     1     3216.2936     4438.2666    32377   37.99%
   2375   560     4428.2529     1     3216.2936     4438.2666    31998   37.99%
   2632   920     4427.2954     1     3216.2936     4438.2666    33473   37.99%
   3549  1359     4234.1662     1     3216.2936     4438.2666    35333   37.99%
Elapsed time = 16.05 sec. (8778.33 ticks, tree = 7.28 MB, solutions = 4)
   4554  1027     4437.8524     1     4366.6124     4438.2666    39653    1.64%
   5904  1035     4436.9544     1     4366.6124     4438.2666    39932    1.64%
   7031  1918     4416.6631     2     4366.6124     4438.2666    46617    1.64%
   7733  1959     4438.0985     5     4366.6124     4438.2666    46946    1.64%
   8259  2148     4382.4790     1     4366.6124     4438.2666    47969    1.64%
   8454  2121     4415.1834     1     4366.6124     4438.2666    47799    1.64%
   8456  2780        cutoff           4366.6124     4438.2666    55630    1.64%
  10428   644     4412.1257    13     4366.6124     4437.4154    60436    1.62%
  13801  1792     4435.8804     5     4366.6124     4437.1226    70040    1.61%
  16458  3646     4436.9544     1     4366.6124     4437.1226    83078    1.61%
Elapsed time = 35.19 sec. (19531.83 ticks, tree = 11.59 MB, solutions = 5)
  18607  4267     4432.6349     8     4366.6124     4437.1226    87754    1.61%
  20745  4779        cutoff           4366.6124     4437.1226    91629    1.61%
  22597  5111     4436.9544     4     4366.6124     4437.1226    94519    1.61%
  24462  5772     4414.4599     2     4366.6124     4437.1226   100462    1.61%
  26384  6207     4437.1226     3     4366.6124     4437.1226   104415    1.61%
  28244  6859     4437.1226     4     4366.6124     4437.1226   110523    1.61%
  30296  7223     4437.1226     1     4366.6124     4437.1226   114500    1.61%
  32774  8161     4437.1226     3     4366.6124     4437.1226   122065    1.61%
  35151  9399     4435.9302     1     4366.6124     4437.1226   133025    1.61%
  36458 10258        cutoff           4366.6124     4437.1226   141018    1.61%
Elapsed time = 51.44 sec. (29071.61 ticks, tree = 36.96 MB, solutions = 5)
  37614 10568        cutoff           4366.6124     4437.1226   144581    1.61%
  38657 10824        cutoff           4366.6124     4437.1226   147588    1.61%
  40019 10984     4414.2968     1     4366.6124     4437.1226   149166    1.61%
  41235 11261     4437.1226     1     4366.6124     4437.1226   151903    1.61%
  42372 11558     4405.7973     1     4366.6124     4437.1226   155019    1.61%
  43456 11764     4437.1226     1     4366.6124     4437.1226   156941    1.61%
  44684 11978     4402.2467     2     4366.6124     4437.1226   158857    1.61%
  45758 12157     4435.7620     1     4366.6124     4437.1226   160685    1.61%
  46835 12400        cutoff           4366.6124     4437.1226   163332    1.61%
  47864 12611     4414.2968     1     4366.6124     4437.1226   165551    1.61%
Elapsed time = 65.72 sec. (38619.81 ticks, tree = 45.95 MB, solutions = 5)
  48769 12678     4403.4595     2     4366.6124     4437.1226   166284    1.61%
  49719 12912     4414.2968     1     4366.6124     4437.1226   168817    1.61%
  50587 13056        cutoff           4366.6124     4437.1226   170619    1.61%
  51521 13261        cutoff           4366.6124     4437.1226   172964    1.61%
  52456 13299        cutoff           4366.6124     4437.1226   173314    1.61%
  53369 13596        cutoff           4366.6124     4437.1226   176591    1.61%
* 53975 13774      integral     0     4413.7386     4437.1226   178338    0.53%

Clique cuts applied:  1
Cover cuts applied:  7
Implied bound cuts applied:  28
Flow cuts applied:  18
Mixed integer rounding cuts applied:  10
Zero-half cuts applied:  1
Gomory fractional cuts applied:  17

Root node processing (before b&c):
  Real time             =    8.64 sec. (5782.25 ticks)
Parallel b&c, 24 threads:
  Real time             =   66.27 sec. (40099.99 ticks)
  Sync time (average)   =    0.73 sec.
  Wait time (average)   =    0.03 sec.
                          ------------
Total (root+branch&cut) =   74.91 sec. (45882.25 ticks)

Solution pool: 6 solutions saved.

MIP - Integer optimal, tolerance (0.01/1e-06):  Objective =  4.4137386144e+03
Current MIP best bound =  4.4371225747e+03 (gap = 23.384, 0.53%)
Solution time =   74.91 sec.  Iterations = 180291  Nodes = 54264 (9636)
Deterministic time = 45882.40 ticks  (612.53 ticks/sec)

CPLEX> Incumbent solution written to file 'C:\Users\Luke\Desktop\test919\logs\tmp7pjr_tji.cplex.sol'.
CPLEX> Exporting results... 
